
ACE v2.1 

  instance
    name:PyCSP

  Loading variables...

  Loading constraints...

  domains
    types:1  values:288  sizes:[3:96]
  variables
    count:96  arrays:1  degrees:[80:4,81:32,82:60]
  constraints
    count:1874  specific:26  groups:2  arities:[4:1848,12:8,16:11,24:7]
    distribution:[Cardinality:8,ConstraintIntension:1848,LexicographicLE:18]
    intStructures:(1,shared:1847)
    wck:1.68  cpu:1.484  mem:26M328

  Building solver... 

  solver
    guaranteedAC:true
    wck:1.75  cpu:1.484  mem:29M474

  preprocessing
    revisions:(7392,useless=7392)  values:288  unsat:false
    wck:0.034  cpu:1.5  mem:29M474

    run0  dpts:0..9  effs:91  fails:2  wrgs:12  wck:0.00

  global
    effs:91  revisions:(26883,useless=26869)
    stop:FULL_EXPLORATION  wrgs:12
    wck:1.85  cpu:1.5  mem:29M996

s UNSATISFIABLE

d WRONG DECISIONS 12
d FOUND SOLUTIONS 0
d COMPLETE EXPLORATION

c real time : 1.5
